SPARKNaCl/why3-z3/sparknacl-utils.adb_116_13_assert5_1.smt2
;; produced by z3_gnatprove.drv ;;
(set-info :smt-lib-version 2.5)
(set-info :source |VC generated by SPARK 2014|)
(set-info :category industrial)
(set-info :status unknown)
;;; generated by SMT-LIB2 driver
;;; SMT-LIB2 driver: bit-vectors, common part
;;; SMT-LIB2: integer arithmetic
(declare-datatypes ()
  ((int__ref (int__refqtmk (int__content Int)))))

(declare-datatypes ()
  ((t__ref (t__refqtmk (t__content (_ BitVec 16))))))

(declare-sort gf16_normal_limb 0)

;; "to_rep"
(declare-fun to_rep (gf16_normal_limb) (_ BitVec 16))

;; "of_rep"
(declare-fun of_rep ((_ BitVec 16)) gf16_normal_limb)

;; "inversion_axiom"
(assert
  (forall ((x gf16_normal_limb))
    (! (= (of_rep (to_rep x)) x) :pattern ((to_rep x)) )))

;; "range_axiom"
(assert true)

;; "coerce_axiom"
(assert
  (forall ((x (_ BitVec 16)))
    (! (= (to_rep (of_rep x)) x) :pattern ((to_rep (of_rep x))) )))

(declare-sort map1 0)

(declare-datatypes ()
  ((map__ref (map__refqtmk (map__content map1)))))

;; "has_bounds"
(declare-fun has_bounds (map1
  Int
  Int) Bool)

;; "get"
(declare-fun get (map1
  Int) gf16_normal_limb)

(declare-const swap Bool)

(declare-const p map1)

(declare-const q map1)

(declare-const t (_ BitVec 16))

;; "t'unused"
(define-fun tqtunused () t__ref
  (t__refqtmk t))

;; "q'unused"
(define-fun qqtunused () map__ref
  (map__refqtmk q))

;; "p'unused"
(define-fun pqtunused () map__ref
  (map__refqtmk p))

;; "Assume"
(assert (has_bounds p 0 15))

;; "Assume"
(assert (has_bounds q 0 15))

;; "temp___729"
(define-fun temp___729 () Bool
  swap)

;; "temp___old_763'unused"
(define-fun temp___old_763qtunused () map1
  q)

;; "map__content'result'unused"
(define-fun map__contentqtresultqtunused () map1
  q)

;; "temp___old_762'unused"
(define-fun temp___old_762qtunused () map1
  p)

;; "map__content'result'unused"
(define-fun map__contentqtresultqtunused1 () map1
  p)

;; "temp___old_761'unused"
(define-fun temp___old_761qtunused () map1
  p)

;; "map__content'result'unused"
(define-fun map__contentqtresultqtunused2 () map1
  p)

;; "temp___old_760'unused"
(define-fun temp___old_760qtunused () map1
  q)

;; "map__content'result'unused"
(define-fun map__contentqtresultqtunused3 () map1
  q)

;; "Assume"
(assert true)

;; "Assume"
(assert true)

;; "o"
(define-fun o () Int
  (ite swap 1 0))

;; "to_int'result'unused"
(define-fun to_intqtresultqtunused () Int
  o)

;; "o"
(define-fun o1 () (_ BitVec 16)
  ((_ int2bv 16) o))

;; "of_int'result'unused"
(define-fun of_intqtresultqtunused () (_ BitVec 16)
  o1)

;; "o"
(define-fun o2 () (_ BitVec 16)
  (bvmul #xFFFF o1))

;; "mul'result'unused"
(define-fun mulqtresultqtunused () (_ BitVec 16)
  o2)

;; "Ensures"
(assert true)

;; "range_check_'result'unused"
(define-fun range_check_qtresultqtunused () (_ BitVec 16)
  o2)

(declare-const c (_ BitVec 16))

;; "c'unused"
(define-fun cqtunused () t__ref
  (t__refqtmk c))

;; "H"
(assert (= c o2))

;; "Assume"
(assert true)

(declare-const i Int)

;; "i'unused"
(define-fun iqtunused () int__ref
  (int__refqtmk i))

;; "H"
(assert (= i 0))

;; "int__content'result'unused"
(define-fun int__contentqtresultqtunused () Int
  i)

;; "o"
(define-fun o3 () Bool
  (ite (<= i 15) true false))

;; "infix <='result'unused"
(define-fun infix_lseqqtresultqtunused () Bool
  o3)

;; "int__content'result'unused"
(define-fun int__contentqtresultqtunused1 () Int
  i)

;; "o"
(define-fun o4 () Bool
  (ite (<= 0 i) true false))

;; "infix <='result'unused"
(define-fun infix_lseqqtresultqtunused1 () Bool
  o4)

;; "o"
(define-fun o5 () Bool
  (and o4 o3))

;; "andb'result'unused"
(define-fun andbqtresultqtunused () Bool
  o5)

;; "H"
(assert (= o5 true))

;; "temp___loop_entry_748'unused"
(define-fun temp___loop_entry_748qtunused () map1
  p)

;; "map__content'result'unused"
(define-fun map__contentqtresultqtunused4 () map1
  p)

;; "temp___loop_entry_745'unused"
(define-fun temp___loop_entry_745qtunused () map1
  q)

;; "map__content'result'unused"
(define-fun map__contentqtresultqtunused5 () map1
  q)

;; "temp___loop_entry_754'unused"
(define-fun temp___loop_entry_754qtunused () map1
  q)

;; "map__content'result'unused"
(define-fun map__contentqtresultqtunused6 () map1
  q)

;; "temp___loop_entry_751'unused"
(define-fun temp___loop_entry_751qtunused () map1
  p)

;; "map__content'result'unused"
(define-fun map__contentqtresultqtunused7 () map1
  p)

;; "temp___loop_entry_741'unused"
(define-fun temp___loop_entry_741qtunused () map1
  q)

;; "map__content'result'unused"
(define-fun map__contentqtresultqtunused8 () map1
  q)

;; "temp___loop_entry_738'unused"
(define-fun temp___loop_entry_738qtunused () map1
  p)

;; "map__content'result'unused"
(define-fun map__contentqtresultqtunused9 () map1
  p)

;; "temp___loop_entry_736'unused"
(define-fun temp___loop_entry_736qtunused () (_ BitVec 16)
  t)

;; "t__content'result'unused"
(define-fun t__contentqtresultqtunused () (_ BitVec 16)
  t)

;; "int__content'result'unused"
(define-fun int__contentqtresultqtunused2 () Int
  i)

;; "map__content'result'unused"
(define-fun map__contentqtresultqtunused10 () map1
  q)

;; "o"
(define-fun o6 () gf16_normal_limb
  (get q i))

;; "get'result'unused"
(define-fun getqtresultqtunused () gf16_normal_limb
  o6)

(declare-const o7 (_ BitVec 16))

;; "Ensures"
(assert (= (to_rep o6) o7))

;; "to_rep'result'unused"
(define-fun to_repqtresultqtunused () (_ BitVec 16)
  o7)

;; "int__content'result'unused"
(define-fun int__contentqtresultqtunused3 () Int
  i)

;; "map__content'result'unused"
(define-fun map__contentqtresultqtunused11 () map1
  p)

;; "o"
(define-fun o8 () gf16_normal_limb
  (get p i))

;; "get'result'unused"
(define-fun getqtresultqtunused1 () gf16_normal_limb
  o8)

(declare-const o9 (_ BitVec 16))

;; "Ensures"
(assert (= (to_rep o8) o9))

;; "to_rep'result'unused"
(define-fun to_repqtresultqtunused1 () (_ BitVec 16)
  o9)

;; "o"
(define-fun o10 () (_ BitVec 16)
  (bvxor o9 o7))

;; "bw_xor'result'unused"
(define-fun bw_xorqtresultqtunused () (_ BitVec 16)
  o10)

;; "t__content'result'unused"
(define-fun t__contentqtresultqtunused1 () (_ BitVec 16)
  c)

;; "o"
(define-fun o11 () (_ BitVec 16)
  (bvand c o10))

;; "bw_and'result'unused"
(define-fun bw_andqtresultqtunused () (_ BitVec 16)
  o11)

(declare-const t1 (_ BitVec 16))

;; "t'unused"
(define-fun tqtunused1 () t__ref
  (t__refqtmk t1))

;; "H"
(assert (= t1 o11))

;; "H"
(assert (not (= swap true)))

;; Goal "def'vc"
;; File "sparknacl-utils.ads", line 44, characters 0-0
(assert
  (not (= (bvxor (to_rep (get p i)) t1) (to_rep (get p i)))))

(check-sat)
